c User generated cnf file
p cnf 6 19
5 4 -2 0 
-5 3 6 0 
2 4 -6 0 
2 6 -4 0 
-1 4 3 0 
3 1 -1 0 
-5 5 6 0 
6 3 -6 0 
3 -2 6 0 
4 -6 1 0 
5 -6 1 0 
-2 4 6 0 
6 4 -4 0 
6 -5 1 0 
-6 6 4 0 
-2 1 2 0 
3 2 -6 0 
4 -4 3 0 
3 -6 2 0 
